letting n =  10
letting blocks =  [[1, 1], [1, 7], [1, 8], [1, 9], [2, 1], [2, 2], [2, 6], [3, 6], [4, 1], [5, 1], [5, 5], [5, 6], [6, 8], [7, 10], [8, 9], [9, 1], [10, 2], [10, 3], [10, 9], [10, 10]]
